NAME : Instance 1
COMMENT : Comment 1
TYPE : TSP
DIMENSION: 30
EDGE_WEIGHT_TYPE : EUC_2D
NODE_COORD_SECTION
  1 650 991
  2 642 51
  3 919 1055
  4 908 1051
  5 255 1036
  6 242 1653
  7 1707 435
  8 1807 1946
  9 518 178
  10 1013 1178
  11 1768 11
  12 1874 164
  13 1925 1199
  14 620 702
  15 542 862
  16 1524 645
  17 1670 713
  18 1835 1916
  19 1702 1490
  20 230 86
  21 1491 1441
  22 1881 330
  23 1737 1664
  24 1543 693
  25 1749 86
  26 651 8
  27 677 1590
  28 40 998
  29 474 429
  30 958 231
EOF
